(set-logic QF_S)
(set-info :source |  Sleek solver
  http://loris-7.ddns.comp.nus.edu.sg/~project/hip/
|)

(set-info :smt-lib-version 2.0)
(set-info :category "crafted")
(set-info :status unsat)


(declare-sort node 0)
(declare-fun left () (Field node node))
(declare-fun right () (Field node node))
(declare-fun next () (Field node node))

(define-fun tree ((?in node) (?n Int))
Space (tospace
(or
(exists ((?flted_15_28 node)(?flted_15_29 node))(and 
(= ?flted_15_29 nil)
(= ?flted_15_28 nil)
(= ?n 1)
(tobool  
(pto ?in (sref (ref left ?flted_15_29) (ref right ?flted_15_28) (ref next ?Anon_14) ))
 )
))(exists ((?flted_16_30 node))(and 
(= ?flted_16_30 nil)
(= ?n (+ (+ 1 ?n1) ?n2))
(tobool (ssep 
(pto ?in (sref (ref left ?l) (ref right ?r) (ref next ?flted_16_30) ))
(tree ?l ?n1)
(tree ?r ?n2)
) )
)))))

(define-fun tll ((?in node) (?ll node) (?lr node) (?n Int))
Space (tospace
(or
(exists ((?lr_37 node)(?flted_10_34 node)(?flted_10_35 node))(and 
(= ?flted_10_35 nil)
(= ?flted_10_34 nil)
(= ?in ?ll)
(= ?n 1)
(= ?lr_37 ?lr)
(tobool  
(pto ?in (sref (ref left ?flted_10_35) (ref right ?flted_10_34) (ref next ?lr_37) ))
 )
))(exists ((?ll_38 node)(?z_39 node)(?lr_40 node)(?flted_11_36 node))(and 
(= ?flted_11_36 nil)
(= ?n (+ (+ 1 ?n1) ?n2))
(= ?ll_38 ?ll)
(= ?z_39 ?z)
(= ?lr_40 ?lr)
(tobool (ssep 
(pto ?in (sref (ref left ?l) (ref right ?r) (ref next ?flted_11_36) ))
(tll ?l ?ll_38 ?z ?n1)
(tll ?r ?z_39 ?lr_40 ?n2)
) )
)))))























(declare-fun flted3 () node)
(declare-fun rprm () node)
(declare-fun r () node)
(declare-fun tprm () node)
(declare-fun t () node)
(declare-fun x () node)
(declare-fun lr2 () node)
(declare-fun ggg () node)
(declare-fun n () Int)
(declare-fun xprm () node)
(declare-fun t2 () node)
(declare-fun flted4 () node)


(assert 
(and 
;lexvar(= flted3 nil)
(= t2 t)
(= rprm r)
(= tprm t)
(= xprm x)
(= lr2 ggg)
(= n 1)
(= xprm t2)
(= flted4 nil)
(tobool  
(pto xprm (sref (ref left flted4) (ref right flted3) (ref next lr2) ))
 )
)
)

(assert (not 
(and 
(tobool  
(pto xprm (sref (ref left left1prm) (ref right right1prm) (ref next next1prm) ))
 )
)
))

(check-sat)